%%% static parameters %%%
timespan = 1;
Clients_N = [1000];
Demand_W = [15];
Lt0 = [4];
Lt1 = [4];
SS_ = [0.85];
DS_D = [20];
K = [200];
MA = [500];
HC = [0.05];
%%% dynamic parameters %%%
lost_ratio_sales_ret_th = 0.009288518815914273;
lost_ratio_sales_ret_w = 3;
lost_ratio_sales_dis_th = 0.003447501750054588;
lost_ratio_sales_dis_w = 90;
lost_ratio_sales_fac_th = 4.1949476173699376e-05;
lost_ratio_sales_fac_w = 2;
stock_customer_MA_mean_relative_th = 0.8362793798221014;
stock_customer_MA_mean_relative_w = 19;
stock_distributor_MA_mean_relative_th = 0.6374458660363568;
stock_distributor_MA_mean_relative_w = 76;
stock_retailer_MA_mean_relative_th = 0.35703709341039847;
stock_retailer_MA_mean_relative_w = 76;
stock_factory_MA_mean_relative_th = 0.6918864574433681;
stock_factory_MA_mean_relative_w = 34;
